(set-logic QF_UF)
(declare-fun A0 () Bool)
(declare-fun A1 () Bool)
(declare-fun A2 () Bool)
(declare-fun A3 () Bool)
(declare-fun A4 () Bool)
(declare-fun A5 () Bool)
(declare-fun A6 () Bool)
(declare-fun A7 () Bool)
(declare-fun A8 () Bool)
(declare-fun A9 () Bool)
(declare-fun A10 () Bool)
(declare-fun A11 () Bool)
(declare-fun A12 () Bool)
(declare-fun A14 () Bool)
(declare-fun A15 () Bool)
(declare-fun A16 () Bool)
(declare-fun A18 () Bool)
(declare-fun A19 () Bool)
(declare-fun A20 () Bool)
(declare-fun A21 () Bool)
(declare-fun A22 () Bool)
(declare-fun A23 () Bool)
(declare-fun A24 () Bool)
(assert (let ((.def_0 (not A15))) (let ((.def_1 (not A7))) (let ((.def_2 (or .def_1 .def_0))) (let ((.def_3 (not .def_2))) (let ((.def_4 (and A6 A3))) (let ((.def_5 (and .def_4 .def_3))) (let ((.def_6 (not A21))) (let ((.def_7 (or .def_6 .def_6))) (let ((.def_8 (not .def_7))) (let ((.def_9 (not A1))) (let ((.def_10 (not A19))) (let ((.def_11 (or .def_10 .def_9))) (let ((.def_12 (not .def_11))) (let ((.def_13 (and .def_12 .def_8))) (let ((.def_14 (and .def_13 .def_5))) (let ((.def_15 (not A3))) (let ((.def_16 (not A14))) (let ((.def_17 (or .def_16 .def_15))) (let ((.def_18 (not .def_17))) (let ((.def_19 (not A5))) (let ((.def_20 (and .def_15 .def_19))) (let ((.def_21 (and .def_20 .def_18))) (let ((.def_22 (not .def_21))) (let ((.def_23 (not A9))) (let ((.def_24 (or A4 .def_23))) (let ((.def_25 (not .def_24))) (let ((.def_26 (not A23))) (let ((.def_27 (and A5 .def_26))) (let ((.def_28 (= .def_27 .def_25))) (let ((.def_29 (not .def_28))) (let ((.def_30 (or .def_29 .def_22))) (let ((.def_31 (not .def_30))) (let ((.def_32 (and .def_31 .def_14))) (let ((.def_33 (not A12))) (let ((.def_34 (or .def_33 A1))) (let ((.def_35 (not A2))) (let ((.def_36 (and .def_35 A5))) (let ((.def_37 (not .def_36))) (let ((.def_38 (and .def_37 .def_34))) (let ((.def_39 (not .def_38))) (let ((.def_40 (or A21 A10))) (let ((.def_41 (not .def_40))) (let ((.def_42 (not A22))) (let ((.def_43 (or A19 .def_42))) (let ((.def_44 (and .def_43 .def_41))) (let ((.def_45 (and .def_44 .def_39))) (let ((.def_46 (not .def_45))) (let ((.def_47 (and A8 .def_16))) (let ((.def_48 (not .def_47))) (let ((.def_49 (not A10))) (let ((.def_50 (and A8 .def_49))) (let ((.def_51 (and .def_50 .def_48))) (let ((.def_52 (not .def_51))) (let ((.def_53 (not A0))) (let ((.def_54 (and A24 .def_53))) (let ((.def_55 (not .def_54))) (let ((.def_56 (not A6))) (let ((.def_57 (and .def_56 .def_1))) (let ((.def_58 (not .def_57))) (let ((.def_59 (or .def_58 .def_55))) (let ((.def_60 (or .def_59 .def_52))) (let ((.def_61 (not .def_60))) (let ((.def_62 (and .def_61 .def_46))) (let ((.def_63 (or .def_62 .def_32))) (let ((.def_64 (not .def_63))) (let ((.def_65 (not A20))) (let ((.def_66 (and .def_65 .def_10))) (let ((.def_67 (and .def_9 .def_10))) (let ((.def_68 (not .def_67))) (let ((.def_69 (and .def_68 .def_66))) (let ((.def_70 (not .def_69))) (let ((.def_71 (or A19 .def_6))) (let ((.def_72 (not .def_71))) (let ((.def_73 (not A11))) (let ((.def_74 (and .def_73 A8))) (let ((.def_75 (not .def_74))) (let ((.def_76 (and .def_75 .def_72))) (let ((.def_77 (or .def_76 .def_70))) (let ((.def_78 (not .def_77))) (let ((.def_79 (or A11 .def_19))) (let ((.def_80 (or A18 A8))) (let ((.def_81 (or .def_80 .def_79))) (let ((.def_82 (not .def_81))) (let ((.def_83 (not A4))) (let ((.def_84 (and .def_6 .def_83))) (let ((.def_85 (or A4 A6))) (let ((.def_86 (not .def_85))) (let ((.def_87 (or .def_86 .def_84))) (let ((.def_88 (and .def_87 .def_82))) (let ((.def_89 (not .def_88))) (let ((.def_90 (and .def_89 .def_78))) (let ((.def_91 (not .def_90))) (let ((.def_92 (not A16))) (let ((.def_93 (or A12 .def_92))) (let ((.def_94 (not .def_93))) (let ((.def_95 (and .def_23 .def_19))) (let ((.def_96 (not .def_95))) (let ((.def_97 (and .def_96 .def_94))) (let ((.def_98 (or A12 A6))) (let ((.def_99 (not .def_98))) (let ((.def_100 (= .def_19 .def_26))) (let ((.def_101 (not .def_100))) (let ((.def_102 (and .def_101 .def_99))) (let ((.def_103 (not .def_102))) (let ((.def_104 (or .def_103 .def_97))) (let ((.def_105 (not .def_104))) (let ((.def_106 (and A24 .def_9))) (let ((.def_107 (not .def_106))) (let ((.def_108 (and .def_26 .def_65))) (let ((.def_109 (not .def_108))) (let ((.def_110 (and .def_109 .def_107))) (let ((.def_111 (not .def_110))) (let ((.def_112 (not A18))) (let ((.def_113 (and .def_112 A0))) (let ((.def_114 (not .def_113))) (let ((.def_115 (or .def_6 .def_49))) (let ((.def_116 (and .def_115 .def_114))) (let ((.def_117 (or .def_116 .def_111))) (let ((.def_118 (or .def_117 .def_105))) (let ((.def_119 (not .def_118))) (let ((.def_120 (or .def_119 .def_91))) (let ((.def_121 (not .def_120))) (let ((.def_122 (and .def_121 .def_64))) (let ((.def_123 (not .def_122))) .def_123)))))))))))))))))))))))))))))))))))))))))))))))))))))))))))))))))))))))))))))))))))))))))))))))))))))))))))))))))))))))))))))
(check-sat)
